sat
(:max-memory          18.41
 :memory              18.06
 :nlsat-conflicts     2
 :nlsat-decisions     2
 :nlsat-learned-added 2
 :nlsat-propagations  21
 :nlsat-stages        7
 :num-allocs          15528
 :rlimit-count        23484
 :time                0.01
 :total-time          0.02)
